p cnf 111 312
c inputs: 1 2 3 4 5 6 7
c variables for gates: 8 ... 104
c outputs: 105 106 107 108 109 110 111
c random input: 1 2 3 4 -5 -6 -7
8 -1 -5 0
-8 1 0
-8 5 0
9 -2 -4 0
-9 2 0
-9 4 0
10 -8 9 0
-10 8 0
-10 -9 0
11 -9 8 0
-11 9 0
-11 -8 0
12 10 11 0
-12 -10 0
-12 -11 0
13 -1 -5 0
-13 1 0
-13 5 0
14 -2 -4 0
-14 2 0
-14 4 0
15 -14 -13 0
-15 14 0
-15 13 0
16 -1 -6 0
-16 1 0
-16 6 0
17 -2 -5 0
-17 2 0
-17 5 0
18 -17 -16 0
-18 17 0
-18 16 0
19 -1 -6 0
-19 1 0
-19 6 0
20 -19 -15 0
-20 19 0
-20 15 0
21 -2 -5 0
-21 2 0
-21 5 0
22 -21 -15 0
-22 21 0
-22 15 0
23 20 22 0
-23 -20 0
-23 -22 0
24 18 -23 0
-24 -18 0
-24 23 0
25 -1 -6 0
-25 1 0
-25 6 0
26 -2 -5 0
-26 2 0
-26 5 0
27 -26 15 0
-27 26 0
-27 -15 0
28 26 -15 0
-28 -26 0
-28 15 0
29 28 27 0
-29 -28 0
-29 -27 0
30 -25 -29 0
-30 25 0
-30 29 0
31 25 29 0
-31 -25 0
-31 -29 0
32 31 30 0
-32 -31 0
-32 -30 0
33 -1 -7 0
-33 1 0
-33 7 0
34 -2 -6 0
-34 2 0
-34 6 0
35 -34 -33 0
-35 34 0
-35 33 0
36 -1 -7 0
-36 1 0
-36 7 0
37 -36 24 0
-37 36 0
-37 -24 0
38 -2 -6 0
-38 2 0
-38 6 0
39 -38 24 0
-39 38 0
-39 -24 0
40 39 37 0
-40 -39 0
-40 -37 0
41 35 -40 0
-41 -35 0
-41 40 0
42 -1 -7 0
-42 1 0
-42 7 0
43 -2 -6 0
-43 2 0
-43 6 0
44 -43 -24 0
-44 43 0
-44 24 0
45 43 24 0
-45 -43 0
-45 -24 0
46 44 45 0
-46 -44 0
-46 -45 0
47 -42 -46 0
-47 42 0
-47 46 0
48 42 46 0
-48 -42 0
-48 -46 0
49 48 47 0
-49 -48 0
-49 -47 0
50 -2 -7 0
-50 2 0
-50 7 0
51 -50 41 0
-51 50 0
-51 -41 0
52 -2 -7 0
-52 2 0
-52 7 0
53 -52 -41 0
-53 52 0
-53 41 0
54 52 41 0
-54 -52 0
-54 -41 0
55 53 54 0
-55 -53 0
-55 -54 0
56 -3 -4 0
-56 3 0
-56 4 0
57 56 32 0
-57 -56 0
-57 -32 0
58 -56 -32 0
-58 56 0
-58 32 0
59 58 57 0
-59 -58 0
-59 -57 0
60 -3 -4 0
-60 3 0
-60 4 0
61 -60 32 0
-61 60 0
-61 -32 0
62 -3 -5 0
-62 3 0
-62 5 0
63 -62 49 0
-63 62 0
-63 -49 0
64 49 -61 0
-64 -49 0
-64 61 0
65 -3 -5 0
-65 3 0
-65 5 0
66 -65 -61 0
-66 65 0
-66 61 0
67 66 64 0
-67 -66 0
-67 -64 0
68 63 -67 0
-68 -63 0
-68 67 0
69 -3 -5 0
-69 3 0
-69 5 0
70 -69 61 0
-70 69 0
-70 -61 0
71 69 -61 0
-71 -69 0
-71 61 0
72 71 70 0
-72 -71 0
-72 -70 0
73 49 -72 0
-73 -49 0
-73 72 0
74 -49 72 0
-74 49 0
-74 -72 0
75 73 74 0
-75 -73 0
-75 -74 0
76 -3 -6 0
-76 3 0
-76 6 0
77 -76 55 0
-77 76 0
-77 -55 0
78 55 68 0
-78 -55 0
-78 -68 0
79 -3 -6 0
-79 3 0
-79 6 0
80 -79 68 0
-80 79 0
-80 -68 0
81 78 80 0
-81 -78 0
-81 -80 0
82 77 -81 0
-82 -77 0
-82 81 0
83 -3 -6 0
-83 3 0
-83 6 0
84 -83 -68 0
-84 83 0
-84 68 0
85 83 68 0
-85 -83 0
-85 -68 0
86 84 85 0
-86 -84 0
-86 -85 0
87 55 -86 0
-87 -55 0
-87 86 0
88 -55 86 0
-88 55 0
-88 -86 0
89 87 88 0
-89 -87 0
-89 -88 0
90 -3 -7 0
-90 3 0
-90 7 0
91 -90 -51 0
-91 90 0
-91 51 0
92 -51 82 0
-92 51 0
-92 -82 0
93 -3 -7 0
-93 3 0
-93 7 0
94 -93 82 0
-94 93 0
-94 -82 0
95 92 94 0
-95 -92 0
-95 -94 0
96 91 -95 0
-96 -91 0
-96 95 0
97 -3 -7 0
-97 3 0
-97 7 0
98 -97 -82 0
-98 97 0
-98 82 0
99 97 82 0
-99 -97 0
-99 -82 0
100 99 98 0
-100 -99 0
-100 -98 0
101 -100 -51 0
-101 100 0
-101 51 0
102 100 51 0
-102 -100 0
-102 -51 0
103 102 101 0
-103 -102 0
-103 -101 0
104 -1 -4 0
-104 1 0
-104 4 0
-105 104 0
105 -104 0
-106 -12 0
106 12 0
-107 -59 0
107 59 0
-108 -75 0
108 75 0
-109 -89 0
109 89 0
-110 -103 0
110 103 0
-111 -96 0
111 96 0
105 0
106 0
107 0
-108 0
-109 0
-110 0
-111 0
